c Output_time 26.03.2020 18:15:20_+0100 1585242920430241021
c ** Program information **
c program_name                          "QBRG_debug"
c version                               "0.3.20"
c date                                  "25.3.2020"
c gid_id                                "673970833836058123f633335630c185360d632e"
c author                                "Oliver Kullmann"
c url                                   "https://github.com/OKullmann/oklibrary/blob/master/Satisfiability/Transformers/Generators/Random/QBRG.cpp"
c ** Machine information **
c machine_name                          "chyna-Lenovo-G50-70"
c bogomips                              3791.08
c ** Compilation information **
c compiler_version                      "g++ 7.5.0"
c compilation_date                      "Mar_26_2020 11:16:30"
c compilation_options                   "--std=c++17 -pedantic -fmax-errors=5 -Wall -Wextra -g -D_GLIBCXX_DEBUG"
c NDEBUG                                0
c OPTIMIZE                              0
c ** Parameters **
c command-line                          "./QBRG_debug" "a40 e40 a40 40" "432*1,1|2-2,1|3-3,1|4-4,1" "" "1,t" ""
c output                                "QuBlRaGe_160_432_1585242920430063784.qdimacs"
c options                               "filtered,renamed"
c num_quantifier_blocks                 4
c  quantifier_blocks                    1:a1-40 2:e41-80 3:a81-120 4:e121-160
c num_clause-blocks                     1
c  clause-blocks                        432 * {1-40,1,1/2} | {41-80,1,1/2} | {81-120,1,1/2} | {121-160,1,1/2}
c num_e-seeds                           37+2=39
c  e-seeds                              1 0 1 0 5 160 2 40 0 40 1 40 0 40 1 432 4 1 1 1 1 2 2 2 1 1 2 3 3 1 1 2 4 4 1 1 2 1 1585242920430062980
p cnf 160 432
a 1 2 3 4 5 6 7 8 9 10 11 12 13 14 15 16 17 18 19 20 21 22 23 24 25 26 27 28 29 30 31 32 33 34 35 36 37 38 39 40 0
e 41 42 43 44 45 46 47 48 49 50 51 52 53 54 55 56 57 58 59 60 61 62 63 64 65 66 67 68 69 70 71 72 73 74 75 76 77 78 79 80 0
a 81 82 83 84 85 86 87 88 89 90 91 92 93 94 95 96 97 98 99 100 101 102 103 104 105 106 107 108 109 110 111 112 113 114 115 116 117 118 119 120 0
e 121 122 123 124 125 126 127 128 129 130 131 132 133 134 135 136 137 138 139 140 141 142 143 144 145 146 147 148 149 150 151 152 153 154 155 156 157 158 159 160 0
-8 41 -89 -121 0
13 57 -90 -121 0
-34 -69 90 -121 0
-36 -51 96 -121 0
39 -49 -115 -121 0
-12 -59 -115 -121 0
34 78 -90 121 0
-1 -55 -98 121 0
1 -74 107 121 0
-21 -68 88 -122 0
31 60 92 -122 0
-31 51 -97 -122 0
-27 76 97 -122 0
-13 71 115 -122 0
8 45 -89 122 0
-29 57 90 122 0
16 -79 -92 122 0
28 41 95 122 0
-25 52 120 122 0
22 45 83 -123 0
-26 -62 -86 -123 0
28 -47 -95 -123 0
-15 -48 -97 -123 0
10 74 -102 -123 0
-19 43 112 -123 0
22 -49 -116 -123 0
-9 67 118 -123 0
26 -74 -82 123 0
31 49 101 123 0
20 67 -104 123 0
25 -74 -86 -124 0
-28 -74 -96 -124 0
-22 -69 -104 -124 0
-15 -66 111 -124 0
-31 -49 85 124 0
-17 -41 91 124 0
-36 69 96 124 0
-7 69 -103 124 0
3 -52 112 124 0
39 77 119 124 0
-4 60 120 124 0
-17 -75 -90 -125 0
35 56 -94 -125 0
-21 -65 -95 -125 0
-20 -55 -101 -125 0
-18 79 101 -125 0
-26 62 -103 -125 0
-18 57 104 -125 0
-40 59 109 -125 0
18 -60 119 -125 0
-1 73 -82 125 0
34 74 -94 125 0
-37 -67 -99 125 0
-22 -49 101 125 0
-13 64 -105 125 0
-34 61 -111 125 0
-11 57 -117 125 0
20 54 -119 125 0
-19 -52 99 -126 0
8 51 100 -126 0
40 80 105 -126 0
28 66 107 -126 0
27 77 114 -126 0
12 41 -116 -126 0
33 42 -81 126 0
24 46 -99 126 0
-39 57 86 -127 0
-38 69 -90 -127 0
18 45 -97 -127 0
39 -73 101 -127 0
17 -45 108 -127 0
-18 -71 -112 -127 0
-10 63 -116 -127 0
9 56 118 -127 0
6 -79 -81 127 0
16 -65 -91 127 0
-30 -68 93 127 0
1 -58 -107 127 0
-10 -46 -108 127 0
-24 67 -108 127 0
8 -69 -109 127 0
34 -51 113 127 0
-21 -71 117 127 0
-36 -50 81 -128 0
-29 -65 -93 -128 0
18 66 96 -128 0
17 70 -98 -128 0
36 -75 105 -128 0
-10 56 -106 -128 0
21 -66 114 -128 0
-33 -76 -86 128 0
3 59 -91 128 0
31 -72 95 128 0
-37 43 100 128 0
-34 68 108 128 0
-11 -58 115 128 0
39 -43 119 128 0
27 -73 100 -129 0
-39 -44 102 -129 0
-31 -46 111 -129 0
-37 63 112 -129 0
22 48 -114 -129 0
13 64 119 -129 0
27 56 -84 129 0
-21 47 -98 129 0
17 -55 -112 129 0
8 53 -87 -130 0
4 52 -99 -130 0
16 -53 -107 -130 0
7 48 113 -130 0
20 -43 99 130 0
-12 -80 112 130 0
9 71 117 130 0
-14 -53 -118 130 0
-29 50 117 -131 0
-13 46 120 -131 0
-25 -47 -82 131 0
30 72 96 131 0
22 42 -100 131 0
33 67 -100 131 0
-33 -44 106 131 0
9 -52 -87 -132 0
-15 72 93 -132 0
-2 63 -96 -132 0
-31 -69 -103 -132 0
25 -78 105 -132 0
-2 -50 108 -132 0
-38 52 -112 -132 0
32 80 -120 -132 0
-8 -65 -82 132 0
-27 78 -87 132 0
-18 69 108 132 0
-7 71 111 132 0
28 -41 -114 132 0
33 -43 118 132 0
-30 -61 -81 -133 0
-1 -66 84 -133 0
40 -70 84 -133 0
16 52 88 -133 0
-33 -49 -96 -133 0
6 -68 -104 -133 0
-1 58 -83 133 0
6 -79 -85 133 0
-22 44 88 133 0
23 -70 88 133 0
37 47 89 133 0
23 58 -94 133 0
-21 51 100 133 0
23 52 -101 133 0
-26 53 -110 133 0
3 50 110 133 0
-8 64 119 133 0
34 71 119 133 0
-38 -68 87 -134 0
30 -50 -94 -134 0
8 -68 -119 -134 0
-33 -64 -92 134 0
-22 45 94 134 0
-7 42 -104 134 0
-15 -71 -110 134 0
-1 -55 -113 134 0
29 -52 -120 134 0
-2 59 -81 -135 0
-11 54 -84 -135 0
-24 75 99 -135 0
-23 -67 -103 -135 0
-7 -73 114 -135 0
13 -50 119 -135 0
19 53 87 135 0
11 -52 91 135 0
31 45 -107 135 0
-33 -43 107 135 0
-4 -60 -110 135 0
40 -54 120 135 0
15 70 120 135 0
33 54 -88 -136 0
-33 -62 95 -136 0
22 -72 95 -136 0
26 -51 -97 -136 0
-30 50 104 -136 0
-18 73 -105 -136 0
-37 -57 -85 136 0
4 64 -98 136 0
25 -65 99 136 0
-19 76 105 136 0
16 -53 110 136 0
27 -60 -83 -137 0
-36 -52 -84 -137 0
-26 -67 85 -137 0
-3 -45 82 137 0
17 74 -93 137 0
-34 61 99 137 0
21 -75 108 137 0
-21 62 -81 -138 0
20 61 83 -138 0
-23 -45 90 138 0
-40 54 -95 138 0
-13 -72 102 138 0
31 45 -103 138 0
11 -51 107 138 0
-3 56 -108 138 0
36 74 -94 -139 0
20 60 97 -139 0
1 -54 -111 -139 0
26 65 116 -139 0
-19 -55 -118 -139 0
24 -72 -83 139 0
16 -41 97 139 0
-5 74 -111 139 0
37 55 -87 -140 0
-35 45 89 -140 0
-29 73 -91 -140 0
-35 -52 115 -140 0
-3 78 -87 140 0
34 48 -89 140 0
23 59 -100 140 0
17 -41 -120 140 0
-27 60 120 140 0
12 -44 -83 -141 0
13 69 93 -141 0
-3 -79 111 -141 0
6 -76 116 -141 0
35 -65 -81 141 0
12 79 -81 141 0
29 -75 89 141 0
22 57 90 141 0
36 73 103 141 0
35 76 110 141 0
22 43 -113 141 0
-19 -41 86 -142 0
21 61 -94 -142 0
-6 53 95 -142 0
-13 -73 -97 -142 0
-25 48 114 -142 0
-30 65 -116 -142 0
36 66 -85 142 0
13 -71 89 142 0
-1 -72 89 142 0
2 -65 97 142 0
-27 -78 102 142 0
2 53 -113 142 0
-38 -69 90 -143 0
-5 69 91 -143 0
27 45 93 -143 0
33 74 -98 -143 0
30 70 -99 -143 0
-6 79 103 -143 0
-33 -74 82 143 0
-9 -80 106 143 0
26 -49 -111 143 0
38 -58 -112 143 0
-4 69 114 143 0
1 48 -85 -144 0
-23 53 93 -144 0
-33 -79 98 -144 0
-36 57 -102 -144 0
-12 73 102 -144 0
11 -48 -108 -144 0
-19 -60 -110 -144 0
4 -50 110 -144 0
-33 51 120 -144 0
8 61 81 144 0
35 72 82 144 0
-38 55 -88 144 0
20 69 -91 144 0
30 56 -97 144 0
13 -68 102 144 0
11 -78 102 144 0
-37 -46 109 144 0
-12 -49 -115 144 0
4 51 119 144 0
10 -46 -82 -145 0
-31 -47 87 -145 0
-13 41 90 -145 0
-36 -76 -99 -145 0
38 -58 -104 -145 0
1 -57 105 -145 0
23 80 108 -145 0
19 56 -110 -145 0
31 -60 120 -145 0
26 -41 -90 145 0
11 -46 -96 -146 0
-3 -67 -112 -146 0
-7 -44 92 146 0
-8 -79 114 146 0
-4 57 -81 -147 0
25 -44 87 -147 0
-29 48 105 -147 0
37 57 -108 -147 0
-38 66 -90 147 0
-29 -64 96 147 0
15 68 100 147 0
-11 -62 105 147 0
31 -54 -106 147 0
-39 47 106 147 0
13 -42 93 -148 0
-36 71 -100 -148 0
2 69 108 -148 0
-2 59 -112 -148 0
10 -50 -115 -148 0
19 -55 82 148 0
8 61 -92 148 0
-34 59 -94 148 0
-21 -67 108 148 0
37 67 -109 148 0
-22 58 110 148 0
-13 57 -113 148 0
20 65 86 -149 0
38 41 89 -149 0
19 73 -105 -149 0
-23 41 106 149 0
-4 55 108 149 0
10 45 -109 149 0
11 54 110 149 0
40 55 85 -150 0
-32 71 89 -150 0
38 45 -90 -150 0
-11 70 -90 -150 0
5 51 91 -150 0
13 -80 -103 -150 0
1 -72 116 -150 0
14 80 -84 150 0
-22 80 88 150 0
-27 66 105 150 0
-38 -70 -112 150 0
-3 58 -119 150 0
-17 -57 81 -151 0
-30 74 84 -151 0
11 -71 -86 -151 0
-7 -64 -97 -151 0
-38 56 98 -151 0
20 46 116 -151 0
-18 47 -117 -151 0
25 60 -119 -151 0
5 -66 -102 151 0
18 -74 -106 151 0
-27 54 116 151 0
-19 46 88 -152 0
-9 -46 -93 -152 0
-33 74 93 -152 0
12 -63 -96 -152 0
-20 -78 -101 -152 0
15 -60 -105 -152 0
-36 -74 -108 -152 0
-11 -69 -109 -152 0
23 -51 -83 152 0
-19 -78 87 152 0
18 -67 -91 152 0
7 -72 -98 152 0
-19 -67 108 152 0
-28 -47 -110 152 0
19 -45 -113 152 0
5 -44 -117 152 0
-36 -76 85 -153 0
-24 67 97 -153 0
-15 -49 -99 -153 0
-1 79 -100 -153 0
25 47 100 -153 0
-16 46 -107 -153 0
-35 61 -109 -153 0
-23 52 -112 -153 0
-14 67 114 -153 0
-18 61 102 153 0
24 43 107 153 0
33 76 -110 153 0
-26 73 -115 153 0
18 -53 81 -154 0
3 62 -96 -154 0
-17 68 98 -154 0
-35 47 116 -154 0
33 -69 116 -154 0
1 -42 -99 154 0
5 57 100 154 0
-15 -48 -86 -155 0
-22 69 87 -155 0
13 -57 -88 -155 0
-29 -41 90 -155 0
-26 77 96 -155 0
21 71 -102 -155 0
-36 -72 114 -155 0
7 47 115 -155 0
12 44 118 -155 0
-21 64 82 155 0
27 45 88 155 0
9 -67 90 155 0
20 75 91 155 0
24 80 -101 155 0
-25 78 104 155 0
33 -48 -107 155 0
-1 -67 108 155 0
13 46 86 -156 0
35 -79 104 -156 0
17 -45 120 -156 0
7 -53 83 156 0
-37 -58 -88 156 0
-1 -43 -91 156 0
11 -80 93 156 0
-22 -78 -106 156 0
-25 -65 -110 156 0
25 -57 -86 -157 0
-33 -67 88 -157 0
18 -68 97 -157 0
-11 79 -115 -157 0
-19 65 -118 -157 0
-21 72 -88 157 0
-33 -41 114 157 0
36 54 -119 157 0
-31 -73 88 -158 0
-25 65 91 -158 0
-40 47 -103 -158 0
-21 66 119 -158 0
-4 -80 -83 158 0
27 47 117 158 0
-24 -47 -81 -159 0
-24 -73 -93 -159 0
-14 -62 96 -159 0
-10 65 99 -159 0
-38 -51 -102 -159 0
-14 64 106 -159 0
-40 78 115 -159 0
32 -50 90 159 0
2 48 101 159 0
31 57 -117 159 0
24 -62 -84 -160 0
19 -78 -91 -160 0
26 -71 103 -160 0
23 63 -116 -160 0
35 -65 -83 160 0
13 60 84 160 0
30 52 88 160 0
8 -58 101 160 0
27 54 -117 160 0
